c nIsolatedPIs 0
c maxPI 32
p cnf 320 865
c gate 33 -3 19 0
-3 -33 0
19 -33 0
3 -19 33 0
c gate 34 3 -19 0
3 -34 0
-19 -34 0
-3 19 34 0
c gate 35 -33 -34 0
-33 -35 0
-34 -35 0
33 34 35 0
c gate 36 18 -35 0
18 -36 0
-35 -36 0
-18 35 36 0
c gate 37 -2 18 0
-2 -37 0
18 -37 0
2 -18 37 0
c gate 38 2 -18 0
2 -38 0
-18 -38 0
-2 18 38 0
c gate 39 -37 -38 0
-37 -39 0
-38 -39 0
37 38 39 0
c gate 40 1 17 0
1 -40 0
17 -40 0
-1 -17 40 0
c gate 41 -39 40 0
-39 -41 0
40 -41 0
39 -40 41 0
c gate 42 2 18 0
2 -42 0
18 -42 0
-2 -18 42 0
c gate 43 -41 -42 0
-41 -43 0
-42 -43 0
41 42 43 0
c gate 44 -36 -43 0
-36 -44 0
-43 -44 0
36 43 44 0
c gate 45 4 -20 0
4 -45 0
-20 -45 0
-4 20 45 0
c gate 46 -1 17 0
-1 -46 0
17 -46 0
1 -17 46 0
c gate 47 -37 -46 0
-37 -47 0
-46 -47 0
37 46 47 0
c gate 48 -34 -38 0
-34 -48 0
-38 -48 0
34 38 48 0
c gate 49 -47 48 0
-47 -49 0
48 -49 0
47 -48 49 0
c gate 50 -33 -49 0
-33 -50 0
-49 -50 0
33 49 50 0
c gate 51 45 -50 0
45 -51 0
-50 -51 0
-45 50 51 0
c gate 52 16 -32 0
16 -52 0
-32 -52 0
-16 32 52 0
c gate 53 -16 32 0
-16 -53 0
32 -53 0
16 -32 53 0
c gate 54 -52 -53 0
-52 -54 0
-53 -54 0
52 53 54 0
c gate 55 -15 -31 0
-15 -55 0
-31 -55 0
15 31 55 0
c gate 56 15 31 0
15 -56 0
31 -56 0
-15 -31 56 0
c gate 57 -55 -56 0
-55 -57 0
-56 -57 0
55 56 57 0
c gate 58 -14 -30 0
-14 -58 0
-30 -58 0
14 30 58 0
c gate 59 14 30 0
14 -59 0
30 -59 0
-14 -30 59 0
c gate 60 -13 -29 0
-13 -60 0
-29 -60 0
13 29 60 0
c gate 61 13 29 0
13 -61 0
29 -61 0
-13 -29 61 0
c gate 62 -12 -28 0
-12 -62 0
-28 -62 0
12 28 62 0
c gate 63 -12 28 0
-12 -63 0
28 -63 0
12 -28 63 0
c gate 64 12 -28 0
12 -64 0
-28 -64 0
-12 28 64 0
c gate 65 -63 -64 0
-63 -65 0
-64 -65 0
63 64 65 0
c gate 66 -11 -27 0
-11 -66 0
-27 -66 0
11 27 66 0
c gate 67 11 27 0
11 -67 0
27 -67 0
-11 -27 67 0
c gate 68 10 26 0
10 -68 0
26 -68 0
-10 -26 68 0
c gate 69 -67 -68 0
-67 -69 0
-68 -69 0
67 68 69 0
c gate 70 -10 -26 0
-10 -70 0
-26 -70 0
10 26 70 0
c gate 71 8 -24 0
8 -71 0
-24 -71 0
-8 24 71 0
c gate 72 -8 24 0
-8 -72 0
24 -72 0
8 -24 72 0
c gate 73 -71 -72 0
-71 -73 0
-72 -73 0
71 72 73 0
c gate 74 -7 -23 0
-7 -74 0
-23 -74 0
7 23 74 0
c gate 75 7 23 0
7 -75 0
23 -75 0
-7 -23 75 0
c gate 76 -74 -75 0
-74 -76 0
-75 -76 0
74 75 76 0
c gate 77 -6 -22 0
-6 -77 0
-22 -77 0
6 22 77 0
c gate 78 5 21 0
5 -78 0
21 -78 0
-5 -21 78 0
c gate 79 4 20 0
4 -79 0
20 -79 0
-4 -20 79 0
c gate 80 -4 -20 0
-4 -80 0
-20 -80 0
4 20 80 0
c gate 81 -79 -80 0
-79 -81 0
-80 -81 0
79 80 81 0
c gate 82 3 19 0
3 -82 0
19 -82 0
-3 -19 82 0
c gate 83 18 -43 0
18 -83 0
-43 -83 0
-18 43 83 0
c gate 84 -82 -83 0
-82 -84 0
-83 -84 0
82 83 84 0
c gate 85 81 -84 0
81 -85 0
-84 -85 0
-81 84 85 0
c gate 86 -79 -85 0
-79 -86 0
-85 -86 0
79 85 86 0
c gate 87 -78 86 0
-78 -87 0
86 -87 0
78 -86 87 0
c gate 88 -77 -87 0
-77 -88 0
-87 -88 0
77 87 88 0
c gate 89 76 -88 0
76 -89 0
-88 -89 0
-76 88 89 0
c gate 90 -74 -89 0
-74 -90 0
-89 -90 0
74 89 90 0
c gate 91 -73 -90 0
-73 -91 0
-90 -91 0
73 90 91 0
c gate 92 -9 -25 0
-9 -92 0
-25 -92 0
9 25 92 0
c gate 93 -8 -24 0
-8 -93 0
-24 -93 0
8 24 93 0
c gate 94 -92 -93 0
-92 -94 0
-93 -94 0
92 93 94 0
c gate 95 -91 94 0
-91 -95 0
94 -95 0
91 -94 95 0
c gate 96 9 25 0
9 -96 0
25 -96 0
-9 -25 96 0
c gate 97 -95 -96 0
-95 -97 0
-96 -97 0
95 96 97 0
c gate 98 -70 -97 0
-70 -98 0
-97 -98 0
70 97 98 0
c gate 99 69 -98 0
69 -99 0
-98 -99 0
-69 98 99 0
c gate 100 -66 -99 0
-66 -100 0
-99 -100 0
66 99 100 0
c gate 101 -65 -100 0
-65 -101 0
-100 -101 0
65 100 101 0
c gate 102 -62 -101 0
-62 -102 0
-101 -102 0
62 101 102 0
c gate 103 -61 -102 0
-61 -103 0
-102 -103 0
61 102 103 0
c gate 104 -60 -103 0
-60 -104 0
-103 -104 0
60 103 104 0
c gate 105 -59 -104 0
-59 -105 0
-104 -105 0
59 104 105 0
c gate 106 -58 -105 0
-58 -106 0
-105 -106 0
58 105 106 0
c gate 107 57 -106 0
57 -107 0
-106 -107 0
-57 106 107 0
c gate 108 -55 -107 0
-55 -108 0
-107 -108 0
55 107 108 0
c gate 109 -54 -108 0
-54 -109 0
-108 -109 0
54 108 109 0
c gate 110 12 28 0
12 -110 0
28 -110 0
-12 -28 110 0
c gate 111 6 22 0
6 -111 0
22 -111 0
-6 -22 111 0
c gate 112 -77 -111 0
-77 -112 0
-111 -112 0
77 111 112 0
c gate 113 5 -21 0
5 -113 0
-21 -113 0
-5 21 113 0
c gate 114 -5 21 0
-5 -114 0
21 -114 0
5 -21 114 0
c gate 115 -113 -114 0
-113 -115 0
-114 -115 0
113 114 115 0
c gate 116 -35 -43 0
-35 -116 0
-43 -116 0
35 43 116 0
c gate 117 -82 -116 0
-82 -117 0
-116 -117 0
82 116 117 0
c gate 118 81 117 0
81 -118 0
117 -118 0
-81 -117 118 0
c gate 119 -80 -118 0
-80 -119 0
-118 -119 0
80 118 119 0
c gate 120 -115 119 0
-115 -120 0
119 -120 0
115 -119 120 0
c gate 121 -78 -120 0
-78 -121 0
-120 -121 0
78 120 121 0
c gate 122 112 -121 0
112 -122 0
-121 -122 0
-112 121 122 0
c gate 123 -111 -122 0
-111 -123 0
-122 -123 0
111 122 123 0
c gate 124 76 -123 0
76 -124 0
-123 -124 0
-76 123 124 0
c gate 125 -75 -124 0
-75 -125 0
-124 -125 0
75 124 125 0
c gate 126 -73 125 0
-73 -126 0
125 -126 0
73 -125 126 0
c gate 127 94 -126 0
94 -127 0
-126 -127 0
-94 126 127 0
c gate 128 -96 -127 0
-96 -128 0
-127 -128 0
96 127 128 0
c gate 129 -70 -128 0
-70 -129 0
-128 -129 0
70 128 129 0
c gate 130 69 -129 0
69 -130 0
-129 -130 0
-69 129 130 0
c gate 131 -66 -130 0
-66 -131 0
-130 -131 0
66 130 131 0
c gate 132 -110 -131 0
-110 -132 0
-131 -132 0
110 131 132 0
c gate 133 -60 -62 0
-60 -133 0
-62 -133 0
60 62 133 0
c gate 134 -132 133 0
-132 -134 0
133 -134 0
132 -133 134 0
c gate 135 -61 -134 0
-61 -135 0
-134 -135 0
61 134 135 0
c gate 136 -58 -135 0
-58 -136 0
-135 -136 0
58 135 136 0
c gate 137 -59 -136 0
-59 -137 0
-136 -137 0
59 136 137 0
c gate 138 57 -137 0
57 -138 0
-137 -138 0
-57 137 138 0
c gate 139 -56 -138 0
-56 -139 0
-138 -139 0
56 138 139 0
c gate 140 109 -139 0
109 -140 0
-139 -140 0
-109 139 140 0
c gate 141 -51 -140 0
-51 -141 0
-140 -141 0
51 140 141 0
c gate 142 -112 115 0
-112 -142 0
115 -142 0
112 -115 142 0
c gate 143 -76 142 0
-76 -143 0
142 -143 0
76 -142 143 0
c gate 144 51 -143 0
51 -144 0
-143 -144 0
-51 143 144 0
c gate 145 -141 -144 0
-141 -145 0
-144 -145 0
141 144 145 0
c gate 146 73 90 0
73 -146 0
90 -146 0
-73 -90 146 0
c gate 147 -91 -146 0
-91 -147 0
-146 -147 0
91 146 147 0
c gate 148 73 -125 0
73 -148 0
-125 -148 0
-73 125 148 0
c gate 149 -126 -148 0
-126 -149 0
-148 -149 0
126 148 149 0
c gate 150 147 -149 0
147 -150 0
-149 -150 0
-147 149 150 0
c gate 151 -147 149 0
-147 -151 0
149 -151 0
147 -149 151 0
c gate 152 -150 -151 0
-150 -152 0
-151 -152 0
150 151 152 0
c gate 153 -73 -152 0
-73 -153 0
-152 -153 0
73 152 153 0
c gate 154 65 -131 0
65 -154 0
-131 -154 0
-65 131 154 0
c gate 155 -99 131 0
-99 -155 0
131 -155 0
99 -131 155 0
c gate 156 -101 -155 0
-101 -156 0
-155 -156 0
101 155 156 0
c gate 157 -154 156 0
-154 -157 0
156 -157 0
154 -156 157 0
c gate 158 -100 -131 0
-100 -158 0
-131 -158 0
100 131 158 0
c gate 159 -155 -158 0
-155 -159 0
-158 -159 0
155 158 159 0
c gate 160 91 -125 0
91 -160 0
-125 -160 0
-91 125 160 0
c gate 161 -159 160 0
-159 -161 0
160 -161 0
159 -160 161 0
c gate 162 -157 -161 0
-157 -162 0
-161 -162 0
157 161 162 0
c gate 163 153 162 0
153 -163 0
162 -163 0
-153 -162 163 0
c gate 164 -65 159 0
-65 -164 0
159 -164 0
65 -159 164 0
c gate 165 -163 -164 0
-163 -165 0
-164 -165 0
163 164 165 0
c gate 166 -54 139 0
-54 -166 0
139 -166 0
54 -139 166 0
c gate 167 54 -139 0
54 -167 0
-139 -167 0
-54 139 167 0
c gate 168 -166 -167 0
-166 -168 0
-167 -168 0
166 167 168 0
c gate 169 54 108 0
54 -169 0
108 -169 0
-54 -108 169 0
c gate 170 -109 -169 0
-109 -170 0
-169 -170 0
109 169 170 0
c gate 171 -168 170 0
-168 -171 0
170 -171 0
168 -170 171 0
c gate 172 168 -170 0
168 -172 0
-170 -172 0
-168 170 172 0
c gate 173 -57 106 0
-57 -173 0
106 -173 0
57 -106 173 0
c gate 174 -107 -173 0
-107 -174 0
-173 -174 0
107 173 174 0
c gate 175 -57 137 0
-57 -175 0
137 -175 0
57 -137 175 0
c gate 176 -138 -175 0
-138 -176 0
-175 -176 0
138 175 176 0
c gate 177 174 176 0
174 -177 0
176 -177 0
-174 -176 177 0
c gate 178 -174 -176 0
-174 -178 0
-176 -178 0
174 176 178 0
c gate 179 -58 -59 0
-58 -179 0
-59 -179 0
58 59 179 0
c gate 180 -104 -179 0
-104 -180 0
-179 -180 0
104 179 180 0
c gate 181 -135 180 0
-135 -181 0
180 -181 0
135 -180 181 0
c gate 182 -60 -61 0
-60 -182 0
-61 -182 0
60 61 182 0
c gate 183 101 -182 0
101 -183 0
-182 -183 0
-101 182 183 0
c gate 184 131 183 0
131 -184 0
183 -184 0
-131 -183 184 0
c gate 185 104 179 0
104 -185 0
179 -185 0
-104 -179 185 0
c gate 186 135 185 0
135 -186 0
185 -186 0
-135 -185 186 0
c gate 187 -184 -186 0
-184 -187 0
-186 -187 0
184 186 187 0
c gate 188 -181 187 0
-181 -188 0
187 -188 0
181 -187 188 0
c gate 189 -178 -188 0
-178 -189 0
-188 -189 0
178 188 189 0
c gate 190 -177 -189 0
-177 -190 0
-189 -190 0
177 189 190 0
c gate 191 -172 -190 0
-172 -191 0
-190 -191 0
172 190 191 0
c gate 192 -171 -191 0
-171 -192 0
-191 -192 0
171 191 192 0
c gate 193 -165 192 0
-165 -193 0
192 -193 0
165 -192 193 0
c gate 194 -76 88 0
-76 -194 0
88 -194 0
76 -88 194 0
c gate 195 -89 -194 0
-89 -195 0
-194 -195 0
89 194 195 0
c gate 196 -76 123 0
-76 -196 0
123 -196 0
76 -123 196 0
c gate 197 -124 -196 0
-124 -197 0
-196 -197 0
124 196 197 0
c gate 198 -195 -197 0
-195 -198 0
-197 -198 0
195 197 198 0
c gate 199 195 197 0
195 -199 0
197 -199 0
-195 -197 199 0
c gate 200 -112 121 0
-112 -200 0
121 -200 0
112 -121 200 0
c gate 201 -122 -200 0
-122 -201 0
-200 -201 0
122 200 201 0
c gate 202 87 -112 0
87 -202 0
-112 -202 0
-87 112 202 0
c gate 203 -87 112 0
-87 -203 0
112 -203 0
87 -112 203 0
c gate 204 -202 -203 0
-202 -204 0
-203 -204 0
202 203 204 0
c gate 205 -201 204 0
-201 -205 0
204 -205 0
201 -204 205 0
c gate 206 115 -119 0
115 -206 0
-119 -206 0
-115 119 206 0
c gate 207 -120 -206 0
-120 -207 0
-206 -207 0
120 206 207 0
c gate 208 86 -115 0
86 -208 0
-115 -208 0
-86 115 208 0
c gate 209 -86 115 0
-86 -209 0
115 -209 0
86 -115 209 0
c gate 210 -208 -209 0
-208 -210 0
-209 -210 0
208 209 210 0
c gate 211 207 210 0
207 -211 0
210 -211 0
-207 -210 211 0
c gate 212 201 -204 0
201 -212 0
-204 -212 0
-201 204 212 0
c gate 213 -205 -212 0
-205 -213 0
-212 -213 0
205 212 213 0
c gate 214 -211 213 0
-211 -214 0
213 -214 0
211 -213 214 0
c gate 215 -205 -214 0
-205 -215 0
-214 -215 0
205 214 215 0
c gate 216 -199 -215 0
-199 -216 0
-215 -216 0
199 215 216 0
c gate 217 -207 -210 0
-207 -217 0
-210 -217 0
207 210 217 0
c gate 218 -81 -117 0
-81 -218 0
-117 -218 0
81 117 218 0
c gate 219 -118 -218 0
-118 -219 0
-218 -219 0
118 218 219 0
c gate 220 -81 84 0
-81 -220 0
84 -220 0
81 -84 220 0
c gate 221 -85 -220 0
-85 -221 0
-220 -221 0
85 220 221 0
c gate 222 219 221 0
219 -222 0
221 -222 0
-219 -221 222 0
c gate 223 -2 116 0
-2 -223 0
116 -223 0
2 -116 223 0
c gate 224 -222 -223 0
-222 -224 0
-223 -224 0
222 223 224 0
c gate 225 -211 -224 0
-211 -225 0
-224 -225 0
211 224 225 0
c gate 226 -217 -225 0
-217 -226 0
-225 -226 0
217 225 226 0
c gate 227 214 226 0
214 -227 0
226 -227 0
-214 -226 227 0
c gate 228 44 227 0
44 -228 0
227 -228 0
-44 -227 228 0
c gate 229 216 -228 0
216 -229 0
-228 -229 0
-216 228 229 0
c gate 230 -198 -229 0
-198 -230 0
-229 -230 0
198 229 230 0
c gate 231 -151 230 0
-151 -231 0
230 -231 0
151 -230 231 0
c gate 232 -150 -153 0
-150 -232 0
-153 -232 0
150 153 232 0
c gate 233 -231 232 0
-231 -233 0
232 -233 0
231 -232 233 0
c gate 234 -193 -233 0
-193 -234 0
-233 -234 0
193 233 234 0
c gate 235 108 166 0
108 -235 0
166 -235 0
-108 -166 235 0
c gate 236 141 -235 0
141 -236 0
-235 -236 0
-141 235 236 0
c gate 237 -234 236 0
-234 -237 0
236 -237 0
234 -236 237 0
c gate 238 -145 -237 0
-145 -238 0
-237 -238 0
145 237 238 0
c gate 239 54 -57 0
54 -239 0
-57 -239 0
-54 57 239 0
c gate 240 -14 30 0
-14 -240 0
30 -240 0
14 -30 240 0
c gate 241 14 -30 0
14 -241 0
-30 -241 0
-14 30 241 0
c gate 242 -13 29 0
-13 -242 0
29 -242 0
13 -29 242 0
c gate 243 13 -29 0
13 -243 0
-29 -243 0
-13 29 243 0
c gate 244 11 -27 0
11 -244 0
-27 -244 0
-11 27 244 0
c gate 245 -64 -244 0
-64 -245 0
-244 -245 0
64 244 245 0
c gate 246 -10 26 0
-10 -246 0
26 -246 0
10 -26 246 0
c gate 247 10 -26 0
10 -247 0
-26 -247 0
-10 26 247 0
c gate 248 9 -25 0
9 -248 0
-25 -248 0
-9 25 248 0
c gate 249 -247 -248 0
-247 -249 0
-248 -249 0
247 248 249 0
c gate 250 -7 23 0
-7 -250 0
23 -250 0
7 -23 250 0
c gate 251 6 -22 0
6 -251 0
-22 -251 0
-6 22 251 0
c gate 252 -6 22 0
-6 -252 0
22 -252 0
6 -22 252 0
c gate 253 50 -81 0
50 -253 0
-81 -253 0
-50 81 253 0
c gate 254 -45 -253 0
-45 -254 0
-253 -254 0
45 253 254 0
c gate 255 -114 -254 0
-114 -255 0
-254 -255 0
114 254 255 0
c gate 256 -113 -255 0
-113 -256 0
-255 -256 0
113 255 256 0
c gate 257 -252 -256 0
-252 -257 0
-256 -257 0
252 256 257 0
c gate 258 -251 -257 0
-251 -258 0
-257 -258 0
251 257 258 0
c gate 259 -250 -258 0
-250 -259 0
-258 -259 0
250 258 259 0
c gate 260 7 -23 0
7 -260 0
-23 -260 0
-7 23 260 0
c gate 261 -71 -260 0
-71 -261 0
-260 -261 0
71 260 261 0
c gate 262 -259 261 0
-259 -262 0
261 -262 0
259 -261 262 0
c gate 263 -9 25 0
-9 -263 0
25 -263 0
9 -25 263 0
c gate 264 -72 -263 0
-72 -264 0
-263 -264 0
72 263 264 0
c gate 265 -262 264 0
-262 -265 0
264 -265 0
262 -264 265 0
c gate 266 249 -265 0
249 -266 0
-265 -266 0
-249 265 266 0
c gate 267 -246 -266 0
-246 -267 0
-266 -267 0
246 266 267 0
c gate 268 -11 27 0
-11 -268 0
27 -268 0
11 -27 268 0
c gate 269 -50 142 0
-50 -269 0
142 -269 0
50 -142 269 0
c gate 270 249 261 0
249 -270 0
261 -270 0
-249 -261 270 0
c gate 271 269 270 0
269 -271 0
270 -271 0
-269 -270 271 0
c gate 272 -268 -271 0
-268 -272 0
-271 -272 0
268 271 272 0
c gate 273 267 272 0
267 -273 0
272 -273 0
-267 -272 273 0
c gate 274 245 -273 0
245 -274 0
-273 -274 0
-245 273 274 0
c gate 275 -63 -274 0
-63 -275 0
-274 -275 0
63 274 275 0
c gate 276 -243 -275 0
-243 -276 0
-275 -276 0
243 275 276 0
c gate 277 -242 -276 0
-242 -277 0
-276 -277 0
242 276 277 0
c gate 278 -241 -277 0
-241 -278 0
-277 -278 0
241 277 278 0
c gate 279 -240 -278 0
-240 -279 0
-278 -279 0
240 278 279 0
c gate 280 -239 -279 0
-239 -280 0
-279 -280 0
239 279 280 0
c gate 281 -244 -267 0
-244 -281 0
-267 -281 0
244 267 281 0
c gate 282 -63 -268 0
-63 -282 0
-268 -282 0
63 268 282 0
c gate 283 -281 282 0
-281 -283 0
282 -283 0
281 -282 283 0
c gate 284 -64 -283 0
-64 -284 0
-283 -284 0
64 283 284 0
c gate 285 -242 -284 0
-242 -285 0
-284 -285 0
242 284 285 0
c gate 286 -243 -285 0
-243 -286 0
-285 -286 0
243 285 286 0
c gate 287 -240 -286 0
-240 -287 0
-286 -287 0
240 286 287 0
c gate 288 -241 -287 0
-241 -288 0
-287 -288 0
241 287 288 0
c gate 289 -280 -288 0
-280 -289 0
-288 -289 0
280 288 289 0
c gate 290 -57 279 0
-57 -290 0
279 -290 0
57 -279 290 0
c gate 291 288 -290 0
288 -291 0
-290 -291 0
-288 290 291 0
c gate 292 -289 -291 0
-289 -292 0
-291 -292 0
289 291 292 0
c gate 293 179 -277 0
179 -293 0
-277 -293 0
-179 277 293 0
c gate 294 -286 293 0
-286 -294 0
293 -294 0
286 -293 294 0
c gate 295 -179 277 0
-179 -295 0
277 -295 0
179 -277 295 0
c gate 296 286 295 0
286 -296 0
295 -296 0
-286 -295 296 0
c gate 297 -182 275 0
-182 -297 0
275 -297 0
182 -275 297 0
c gate 298 284 297 0
284 -298 0
297 -298 0
-284 -297 298 0
c gate 299 182 -275 0
182 -299 0
-275 -299 0
-182 275 299 0
c gate 300 -284 299 0
-284 -300 0
299 -300 0
284 -299 300 0
c gate 301 245 282 0
245 -301 0
282 -301 0
-245 -282 301 0
c gate 302 271 -301 0
271 -302 0
-301 -302 0
-271 301 302 0
c gate 303 267 302 0
267 -303 0
302 -303 0
-267 -302 303 0
c gate 304 -246 -263 0
-246 -304 0
-263 -304 0
246 263 304 0
c gate 305 249 304 0
249 -305 0
304 -305 0
-249 -304 305 0
c gate 306 73 305 0
73 -306 0
305 -306 0
-73 -305 306 0
c gate 307 -76 -306 0
-76 -307 0
-306 -307 0
76 306 307 0
c gate 308 269 307 0
269 -308 0
307 -308 0
-269 -307 308 0
c gate 309 -258 308 0
-258 -309 0
308 -309 0
258 -308 309 0
c gate 310 -303 -309 0
-303 -310 0
-309 -310 0
303 309 310 0
c gate 311 -300 310 0
-300 -311 0
310 -311 0
300 -310 311 0
c gate 312 -298 311 0
-298 -312 0
311 -312 0
298 -311 312 0
c gate 313 -296 312 0
-296 -313 0
312 -313 0
296 -312 313 0
c gate 314 -294 313 0
-294 -314 0
313 -314 0
294 -313 314 0
c gate 315 -292 314 0
-292 -315 0
314 -315 0
292 -314 315 0
c gate 316 -238 315 0
-238 -316 0
315 -316 0
238 -315 316 0
c gate 317 41 -316 0
41 -317 0
-316 -317 0
-41 316 317 0
c gate 318 44 -317 0
44 -318 0
-317 -318 0
-44 317 318 0
c gate 319 36 317 0
36 -319 0
317 -319 0
-36 -317 319 0
c gate 320 -318 -319 0
-318 -320 0
-319 -320 0
318 319 320 0
c PO
-320 0
